p tw 164 484
0 1
0 133
1 8
1 132
1 137
1 143
1 144
2 3
2 4
2 120
2 151
3 4
3 99
3 100
3 101
4 156
4 157
4 158
5 6
5 7
5 8
5 53
5 54
5 55
5 56
6 7
6 8
6 131
6 139
7 8
7 152
7 155
8 132
8 137
8 143
8 144
9 10
9 11
9 12
9 13
9 14
9 15
9 62
9 118
10 11
10 12
10 13
10 14
10 15
10 63
10 119
11 12
11 13
11 14
11 15
11 115
12 13
12 14
12 15
12 66
12 92
13 14
13 15
13 84
13 153
13 155
14 15
14 53
14 64
14 93
14 147
14 160
14 161
15 55
15 89
15 134
16 17
16 18
16 36
17 18
17 24
17 35
17 59
17 60
18 37
18 107
19 20
19 74
19 86
19 87
20 110
21 22
21 23
21 24
21 38
21 87
21 108
21 109
21 110
22 23
22 24
22 86
22 88
23 24
23 74
23 75
24 35
24 59
24 60
25 26
25 29
25 47
25 73
25 78
25 116
25 117
26 115
26 130
26 135
26 153
27 28
27 29
27 46
27 70
27 82
27 95
27 96
27 97
28 29
28 71
29 47
29 73
29 78
29 116
29 117
30 31
30 32
30 33
30 44
30 45
31 32
31 33
31 136
31 159
32 33
32 34
33 39
33 40
33 41
33 42
33 43
34 43
35 36
35 37
35 38
35 59
35 60
36 37
36 38
37 38
37 107
38 87
38 108
38 109
38 110
39 40
39 41
39 42
39 43
39 122
39 123
39 124
40 41
40 42
40 43
40 44
40 128
41 42
41 43
41 45
41 125
41 159
42 43
42 98
44 45
44 128
45 125
45 159
46 47
46 48
46 70
46 82
46 95
46 96
46 97
47 48
47 73
47 78
47 116
47 117
48 111
49 50
49 51
49 52
49 104
49 129
50 51
50 52
50 101
50 102
50 146
50 160
51 52
51 58
51 99
51 142
51 151
51 157
52 145
53 54
53 55
53 56
53 64
53 93
53 147
53 160
53 161
54 55
54 56
54 91
54 154
55 56
55 89
55 134
56 90
56 137
56 138
57 58
57 158
58 99
58 142
58 151
58 157
59 60
59 94
59 96
59 107
60 68
60 69
60 70
60 71
60 72
60 73
61 62
61 63
61 64
61 65
61 66
61 67
61 102
61 103
61 104
62 63
62 64
62 65
62 66
62 67
62 118
63 64
63 65
63 66
63 67
63 119
64 65
64 66
64 67
64 93
64 147
64 160
64 161
65 66
65 67
65 149
66 67
66 92
67 150
67 162
67 163
68 69
68 70
68 71
68 72
68 73
68 77
68 114
68 124
68 125
69 70
69 71
69 72
69 73
69 76
70 71
70 72
70 73
70 82
70 95
70 96
70 97
71 72
71 73
72 73
72 94
73 78
73 116
73 117
74 75
74 86
74 87
75 80
75 81
75 82
76 77
76 78
76 79
77 78
77 79
77 114
77 124
77 125
78 79
78 116
78 117
79 113
79 123
80 81
80 82
80 105
80 163
81 82
81 106
81 148
81 149
81 150
82 95
82 96
82 97
83 84
83 85
83 130
84 85
84 153
84 155
85 117
85 135
85 136
86 87
86 88
87 108
87 109
87 110
88 109
88 127
89 90
89 91
89 134
90 91
90 137
90 138
91 154
92 93
93 147
93 160
93 161
94 96
94 107
95 96
95 97
95 111
95 116
96 97
96 107
97 148
98 128
99 100
99 101
99 142
99 151
99 157
100 101
100 156
100 162
101 102
101 146
101 160
102 103
102 104
102 146
102 160
103 104
103 147
104 129
105 106
105 163
106 148
106 149
106 150
108 109
108 110
108 126
109 110
109 127
111 116
112 113
112 114
112 122
113 114
113 123
114 124
114 125
115 130
115 135
115 153
116 117
117 135
117 136
118 119
120 121
120 151
121 142
122 123
122 124
123 124
124 125
125 159
126 127
129 145
129 146
130 135
130 153
131 132
131 133
131 139
132 133
132 137
132 143
132 144
134 161
135 136
135 153
136 159
137 138
137 143
137 144
138 154
139 141
139 144
139 152
140 141
140 143
141 144
141 152
142 151
142 157
143 144
144 152
145 146
146 160
147 160
147 161
148 149
148 150
149 150
150 162
150 163
151 157
152 155
153 155
156 157
156 158
156 162
157 158
160 161
162 163
